c User generated cnf file
p cnf 7 29
6 7 -2 0 
6 5 -3 0 
5 4 -7 0 
1 -7 5 0 
1 2 -7 0 
1 2 -3 0 
7 -7 6 0 
1 -5 2 0 
5 -7 6 0 
6 -1 1 0 
6 -5 3 0 
7 4 -4 0 
6 5 -6 0 
5 7 -4 0 
7 -7 6 0 
7 -6 4 0 
1 5 -5 0 
1 3 -7 0 
5 -6 4 0 
4 -5 7 0 
3 3 -7 0 
7 -2 1 0 
7 3 -3 0 
3 -3 5 0 
2 -5 4 0 
1 7 -3 0 
5 -3 5 0 
3 5 -1 0 
1 4 -1 0 
